# Node Net
1950   1
1050   1
  5   1
2481   1
1950   1
101   1
1351   2
 32   2
 11   2
550   2
701   2
301   2
 22   3
2101   3
2480   3
 40   3
850   3
950   3
 14   4
2474   4
  3   4
2456   4
2250   4
2050   4
2454   5
  1   5
151   5
1651   5
200   6
2476   6
901   6
 26   6
2455   7
2487   7
 20   7
2453   8
2301   8
 27   8
600   9
601   9
1751   9
 51  10
801  10
2478  10
